26
Properties=species:S:1:pos:R:3 pbc="F F F"
C -2.51993656 -1.09231710 -1.95255280
C -1.02062225 -1.05901003 -1.58942223
N 0.16317368 1.07679367 1.88580155
C 1.33358002 1.21883154 1.33299708
C 1.75942898 2.32329130 0.61889410
C 0.89196682 3.41597795 0.53160131
C -0.39752007 3.33717823 1.19332254
C -0.68807602 2.09802866 1.81236684
H -3.29349041 -1.58052206 -1.28698468
H -2.82020569 -0.04833221 -1.95748568
H -2.79251099 -1.54291153 -2.91870832
H -0.47017097 -0.98946095 -2.50334024
H -0.90228558 -0.21965265 -0.91954947
H 2.03241348 0.40030956 1.51161492
H 2.68830776 2.29924679 0.08893609
H 1.27393723 4.32564497 -0.01527905
H -1.04588985 4.17155504 1.22147083
H -1.70161724 1.97846651 2.19447327
C 1.10778809 -2.92034388 0.93493879
S 0.88100910 -2.17702866 -0.66729784
O -0.58603287 -2.43957281 -1.10384703
O 1.80463791 -2.86006212 -1.49300098
O 0.87902546 -0.76562881 -0.69894612
H 1.63965225 -2.14899540 1.46716893
H 0.15377998 -2.89430857 1.42226815
H 1.62965775 -3.90720367 0.89055598
26
Properties=species:S:1:pos:R:3 pbc="F F F"
C -0.52611828 -2.40256286 -1.28932953
C 0.66706061 -1.55073309 -1.23966217
N 1.24954343 -0.79945910 0.64522743
C 0.81702828 0.56926310 1.04290009
C 1.41594052 1.21809626 2.08071709
C 2.45624900 0.56112957 2.86195755
C 2.88417935 -0.65895605 2.47658730
C 2.10504174 -1.32690251 1.39881134
H -0.52329063 -3.38820553 -1.05838776
H -1.44738436 -1.89602673 -0.78301430
H -0.85985541 -2.51976681 -2.26629257
H 0.46637297 -0.59861606 -1.70517921
H 1.59639716 -2.16939974 -1.35551453
H -0.15867710 1.03115845 0.60671806
H 1.10334992 2.24681878 2.35608101
H 2.78353333 1.33539462 3.65602493
H 3.36178422 -1.45233011 3.14311981
H 2.27761388 -2.46043396 1.36932373
C -2.34837651 2.62386560 -1.90786362
S -2.65884280 1.07299781 -1.11848831
O -1.90338373 0.04888725 -1.93137169
O -4.02404785 0.57323349 -0.90549469
O -1.95052743 1.40527940 0.13792992
H -2.64731407 3.42232442 -1.21702194
H -1.24604344 2.51715398 -2.08706856
H -2.89025784 2.59779096 -2.91083336
